p edge 44
e 0 27
e 0 29
e 0 31
e 0 38
e 0 40
e 1 5
e 1 12
e 1 21
e 1 24
e 1 35
e 2 3
e 2 11
e 2 28
e 2 33
e 2 34
e 2 41
e 3 10
e 3 25
e 3 33
e 4 7
e 4 9
e 4 14
e 4 31
e 4 37
e 5 24
e 5 29
e 5 35
e 5 40
e 6 13
e 6 21
e 6 24
e 7 14
e 7 23
e 7 36
e 7 42
e 8 22
e 8 26
e 8 27
e 8 32
e 9 31
e 9 37
e 10 16
e 10 25
e 10 33
e 10 43
e 11 12
e 11 15
e 11 28
e 11 35
e 12 21
e 12 35
e 13 24
e 13 39
e 14 36
e 14 37
e 15 19
e 15 20
e 15 28
e 15 35
e 16 18
e 16 25
e 16 30
e 16 43
e 17 42
e 18 25
e 19 20
e 19 28
e 19 34
e 19 41
e 20 34
e 20 35
e 21 24
e 22 26
e 22 27
e 22 30
e 22 38
e 22 43
e 23 36
e 23 42
e 24 39
e 24 40
e 26 30
e 26 32
e 27 38
e 28 41
e 29 34
e 29 35
e 29 38
e 29 40
e 30 32
e 30 43
e 31 37
e 31 39
e 31 40
e 33 34
e 33 43
e 34 35
e 34 38
e 34 41
e 34 43
e 38 43
e 39 40
c k 2
